8202
24, 48, 37, 36, 49, 32, 1, 22, 18, 31, 23, 20, 50, 44, 34, 35, 39, 40, 38, 15, 43, 33, 10, 9, 8, 41, 19, 45, 3, 17, 21, 42, 7, 2, 30, 29, 16, 46, 25, 12, 51, 11, 52, 14, 13, 47, 26, 27, 28, 4, 6, 5
